
        $ From http://www.csplib.org/Problems/prob009/data/helmut.pdf
        $ Problem number 25
        $ Sequence length : 24
        language ESSENCE' 1.0
        letting sizemaster be 195
        letting sizes be sequence(2,4,7,10,11,16,17,18,21,26,27,30,39,41,42,45,47,49,52,53,54,61,63,80)
        